cases/matpower/case5_gap.m
ipopt
SOCW
[info | PowerModels]: removing 1 cost terms from generator 4: [-4000.0, 0.0]
[info | PowerModels]: removing 1 cost terms from generator 1: [-1400.0, 0.0]
[info | PowerModels]: removing 1 cost terms from generator 5: [-1000.0, 0.0]
[info | PowerModels]: removing 1 cost terms from generator 2: [-1500.0, 0.0]
[info | PowerModels]: removing 1 cost terms from generator 3: [-3000.0, 0.0]

******************************************************************************
This program contains Ipopt, a library for large-scale nonlinear optimization.
 Ipopt is released as open source code under the Eclipse Public License (EPL).
         For more information visit http://projects.coin-or.org/Ipopt
******************************************************************************

This is Ipopt version 3.13.2, running with linear solver mumps.
NOTE: Other linear solvers might be more efficient (see Ipopt documentation).

Number of nonzeros in equality constraint Jacobian...:      130
Number of nonzeros in inequality constraint Jacobian.:      120
Number of nonzeros in Lagrangian Hessian.............:       42

Total number of variables............................:       51
                     variables with only lower bounds:        0
                variables with lower and upper bounds:       51
                     variables with only upper bounds:        0
Total number of equality constraints.................:       34
Total number of inequality constraints...............:       42
        inequality constraints with only lower bounds:       18
   inequality constraints with lower and upper bounds:        0
        inequality constraints with only upper bounds:       24

iter    objective    inf_pr   inf_du lg(mu)  ||d||  lg(rg) alpha_du alpha_pr  ls
   0 -1.0059989e+02 3.99e+00 2.92e+01  -1.0 0.00e+00    -  0.00e+00 0.00e+00   0
   1 -1.3250120e+03 3.73e+00 3.96e+01  -1.0 5.58e+00    -  4.78e-03 6.40e-02f  1
   2 -2.1196108e+03 3.69e+00 3.91e+01  -1.0 1.96e+01    -  1.51e-02 1.10e-02f  1
   3 -2.3792162e+03 3.67e+00 1.43e+02  -1.0 1.01e+01    -  9.96e-02 5.67e-03f  1
   4 -4.7803501e+03 3.45e+00 1.98e+02  -1.0 7.13e+00    -  1.07e-01 6.19e-02f  1
   5 -1.0060895e+04 2.88e+00 2.46e+02  -1.0 6.14e+00    -  5.48e-02 1.63e-01f  1
   6 -1.2393548e+04 2.60e+00 1.48e+02  -1.0 5.32e+00    -  1.77e-01 9.83e-02f  1
   7 -1.8928519e+04 1.75e+00 2.40e+01  -1.0 6.54e+00    -  4.64e-01 3.26e-01f  1
   8 -2.3170010e+04 1.19e+00 1.27e+02  -1.0 8.79e+00    -  6.65e-01 3.21e-01f  1
   9 -2.4336079e+04 1.03e+00 3.56e+02  -1.0 9.02e+00    -  9.59e-02 1.36e-01f  1
iter    objective    inf_pr   inf_du lg(mu)  ||d||  lg(rg) alpha_du alpha_pr  ls
  10 -2.5759920e+04 8.28e-01 2.14e+02  -1.0 1.00e+01    -  2.52e-01 1.94e-01f  1
  11 -2.5798059e+04 8.20e-01 7.30e+02  -1.0 2.71e+01    -  4.07e-02 8.79e-03f  1
  12 -2.5972738e+04 7.76e-01 5.86e+02  -1.0 1.40e+01    -  1.21e-02 5.41e-02f  1
  13 -2.6186184e+04 7.15e-01 5.43e+02  -1.0 2.20e+00    -  2.82e-02 7.89e-02f  1
  14 -2.6578378e+04 6.04e-01 4.61e+02  -1.0 2.46e+00    -  1.03e-01 1.55e-01f  1
  15 -2.6730245e+04 5.60e-01 4.20e+02  -1.0 2.95e+00    -  2.29e-01 7.25e-02f  1
  16 -2.6765648e+04 5.46e-01 4.10e+02  -1.0 8.12e+00    -  3.10e-02 2.52e-02f  1
  17 -2.7686923e+04 2.02e-01 2.12e+03  -1.0 6.98e+00    -  5.70e-02 6.31e-01f  1
  18 -2.8082937e+04 4.77e-02 5.07e+02  -1.0 1.97e+00    -  1.00e+00 7.63e-01f  1
  19 -2.8199779e+04 4.54e-14 3.00e-02  -1.0 1.91e+00    -  1.00e+00 1.00e+00f  1
iter    objective    inf_pr   inf_du lg(mu)  ||d||  lg(rg) alpha_du alpha_pr  ls
  20 -2.8232490e+04 4.77e-14 1.16e+00  -2.5 3.35e-01    -  9.64e-01 8.93e-01f  1
  21 -2.8235740e+04 3.51e-14 1.33e-02  -2.5 1.62e-01    -  1.00e+00 1.00e+00h  1
  22 -2.8236899e+04 4.29e-14 9.09e-02  -3.8 3.86e-01    -  8.11e-01 1.00e+00h  1
  23 -2.8237169e+04 2.78e-14 1.95e-02  -3.8 2.51e+00    -  7.83e-01 8.57e-01h  1
  24 -2.8237203e+04 2.37e-14 7.72e-05  -3.8 1.01e+00    -  1.00e+00 1.00e+00h  1
  25 -2.8237201e+04 3.34e-14 8.45e-07  -3.8 6.01e-02    -  1.00e+00 1.00e+00h  1
  26 -2.8237276e+04 1.69e-14 3.50e-03  -5.7 2.79e-01    -  9.67e-01 8.29e-01h  1
  27 -2.8237291e+04 4.05e-14 7.49e-06  -5.7 5.37e-01    -  1.00e+00 1.00e+00h  1
  28 -2.8237291e+04 2.01e-14 9.91e-08  -5.7 1.55e+00    -  1.00e+00 1.00e+00h  1
  29 -2.8237291e+04 1.10e-14 7.15e-09  -5.7 4.45e-01    -  1.00e+00 1.00e+00h  1
iter    objective    inf_pr   inf_du lg(mu)  ||d||  lg(rg) alpha_du alpha_pr  ls
  30 -2.8237291e+04 8.62e-15 1.84e-11  -5.7 3.45e-02    -  1.00e+00 1.00e+00h  1
  31 -2.8237291e+04 2.31e-14 1.84e-11  -5.7 2.48e-04    -  1.00e+00 1.00e+00h  1
  32 -2.8237292e+04 3.12e-14 4.16e-05  -8.6 9.67e-01    -  8.16e-01 9.64e-01h  1
  33 -2.8237292e+04 3.00e-14 1.48e-04  -8.6 1.02e-01    -  1.00e+00 5.29e-01h  1
  34 -2.8237292e+04 1.61e-14 1.57e-11  -8.6 2.57e-02    -  1.00e+00 1.00e+00h  1

Number of Iterations....: 34

                                   (scaled)                 (unscaled)
Objective...............:  -7.0593230704301232e+02   -2.8237292281720493e+04
Dual infeasibility......:   1.5715953852738847e-11    6.2863815410955389e-10
Constraint violation....:   1.4294121442048890e-14    1.6119050538776492e-14
Complementarity.........:   2.5822190092265383e-09    1.0328876036906153e-07
Overall NLP error.......:   2.5822190092265383e-09    1.0328876036906153e-07


Number of objective function evaluations             = 35
Number of objective gradient evaluations             = 35
Number of equality constraint evaluations            = 35
Number of inequality constraint evaluations          = 35
Number of equality constraint Jacobian evaluations   = 35
Number of inequality constraint Jacobian evaluations = 35
Number of Lagrangian Hessian evaluations             = 34
Total CPU secs in IPOPT (w/o function evaluations)   =      0.297
Total CPU secs in NLP function evaluations           =      0.211

EXIT: Optimal Solution Found.
Time to Solution........:1.2606780529022217
